NAME : instances/clustered-mixed-tsp/instance-14.tsp
COMMENT : No Comment
TYPE : TSP
DIMENSION: 48
EDGE_WEIGHT_TYPE : EUC_2D
NODE_COORD_SECTION
1 177 653 
2 797 9 
3 25 5 
4 261 721 
5 337 693 
6 301 -79 
7 -243 273 
8 473 429 
9 209 437 
10 1089 477 
11 1109 173 
12 977 -79 
13 -119 77 
14 1245 113 
15 869 421 
16 869 165 
17 265 801 
18 -31 953 
19 857 293 
20 293 573 
21 1101 497 
22 -243 305 
23 793 353 
24 -107 389 
25 309 113 
26 -259 857 
27 993 289 
28 213 493 
29 1041 365 
30 193 405 
31 821 245 
32 101 689 
33 705 401 
34 557 881 
35 661 585 
36 145 345 
37 125 109 
38 157 333 
39 21 421 
40 373 529 
41 1013 145 
42 -175 1009 
43 -167 613 
44 409 805 
45 441 197 
46 -107 925 
47 301 41 
48 1121 737 
EOF
